unsat
(:conflicts            1
 :max-generation       1
 :max-memory           31.97
 :memory               23.10
 :mk-bool-var          11373
 :mk-clause            1026
 :mk-clause-binary     5853
 :num-allocs           67803222
 :num-checks           1
 :quant-instantiations 1163
 :rlimit-count         577189
 :time                 0.06)
